NAME : mtspf.pid5455.gtsp.187905048.tour
COMMENT : Length = 187905048
COMMENT : Found by LKH [Keld Helsgaun] Mon Feb 10 01:25:56 2025
TYPE : TOUR
DIMENSION : 125
TOUR_SECTION
1
113
110
111
112
22
23
24
25
16
17
14
15
2
3
84
85
82
83
31
32
33
30
4
105
102
103
104
73
70
71
72
96
97
94
95
38
39
40
41
12
13
10
11
77
74
75
76
57
54
55
56
90
91
92
93
58
59
60
61
79
80
81
78
53
50
51
52
36
37
34
35
114
115
116
117
98
99
100
101
5
26
27
28
29
45
42
43
44
125
122
123
124
18
19
20
21
49
46
47
48
65
62
63
64
108
109
106
107
66
67
68
69
119
120
121
118
9
6
7
8
89
86
87
88
-1
EOF
